nsh = 4; % Number of ships
ship_size = [2, 1, 2, 3]; % Each cell represents number of ship type
load_goods = [false, false, false, false];

maxtime = 8; % Time in the day is from 0 to 'maxtime'
arrival = [ 0, 1, 1, 2]; % At what time the ships arrival
ship_types_number = 3; % How many types of ships is
ship_speed = [1, 1, 1]; % How fast ship is
ship_width = [1, 2, 2];
ship_length = [5, 10, 15];

reclaim_time = 1; % How fast reclaimer moves the containers from ship to platform

nr = 12; % Number of rails
nre = 41; % Number of reclaimers
platform_length = [14, 21, 21, 27, 27, 38, 38, 40, 14, 14, 20, 12];
platform_time = [3, 3, 3, 3, 2, 2, 2, 2, 2, 2, 1, 1]; % time required to arrive to the platform 
                                                     % (when ship speed is 1 - to get correct time divide time by speed
reclaimers_number = [2, 2, 2, 3, 3, 7, 7, 10, 1, 1, 2, 1]; % amount of reclaimers at each platform
reclaimers_platform = [1, 1, 2, 2, 3, 3, 4, 4, 4, 5, 5, 5, 6, 6, 6, 6, 6, 6, 6, 7, 7, 7, 7, 7, 7, 7, 8, 8, 8, 8, 8, 8, 8, 8, 8, 8, 9, 10, 11, 11, 12]


% 1 unit of length -> 25m
% 1 unit of time -> 3.5h